[2026-03-23T16:04:28.833Z] Pipeline "set_exp_3_exp_3_n028_c003_g002" → 2026_03_23_16_04_28_set_exp_3_exp_3_n028_c003_g002_max.sol
Set parameter WLSAccessID
Set parameter WLSSecret
Set parameter LicenseID to value 2792458
Set parameter LogFile to value "gurobi.log"
Using license file /root/gurobi.lic
Academic license 2792458 - for non-commercial use only - registered to an___@studenti.unipg.it

Gurobi Optimizer version 13.0.1 build v13.0.1rc0 (linux64 - "Ubuntu 24.04.4 LTS")
Copyright (c) 2026, Gurobi Optimization, LLC

Warning: Duplicate section found (read 'binary') - Is a variable name equal to an LP file format keyword?
Warning: Duplicate section found (read 'binary') - Is a variable name equal to an LP file format keyword?
Warning: Duplicate section found (read 'binary') - Is a variable name equal to an LP file format keyword?
Warning: Duplicate section found (read 'binary') - Is a variable name equal to an LP file format keyword?
Warning: Duplicate section found (read 'binary') - Is a variable name equal to an LP file format keyword?
Warning: Duplicate section found (read 'binary') - Is a variable name equal to an LP file format keyword?
Warning: Duplicate section found (read 'binary') - Is a variable name equal to an LP file format keyword?
Warning: Duplicate section found (read 'binary') - Is a variable name equal to an LP file format keyword?
Warning: Duplicate section found (read 'binary') - Is a variable name equal to an LP file format keyword?
Warning: Duplicate section found (read 'binary') - Is a variable name equal to an LP file format keyword?
Warning: Further warnings of this type will be omitted.
Read LP format model from file /root/bgw/data/uploads/2026_03_23_16_04_28_set_exp_3_exp_3_n028_c003_g002_max.lp
Reading time = 0.02 seconds
: 7295 rows, 555 columns, 21887 nonzeros

Using Gurobi shared library /opt/gurobi1301/linux64/lib/libgurobi.so.13.0.1

CPU model: AMD EPYC-Genoa Processor, instruction set [SSE2|AVX|AVX2|AVX512]
Thread count: 16 physical cores, 16 logical processors, using up to 16 threads

Academic license 2792458 - for non-commercial use only - registered to an___@studenti.unipg.it
Optimize a model with 7295 rows, 555 columns and 21887 nonzeros (Max)
Model fingerprint: 0x6baa7e9b
Model has 7 linear objective coefficients
Variable types: 35 continuous, 520 integer (520 binary)
Coefficient statistics:
  Matrix range     [1e+00, 3e+01]
  Objective range  [1e+00, 1e+00]
  Bounds range     [1e+00, 1e+00]
  RHS range        [1e+00, 3e+01]

Found heuristic solution: objective 7.0000000
Presolve removed 709 rows and 155 columns
Presolve time: 0.05s
Presolved: 6586 rows, 400 columns, 20008 nonzeros
Variable types: 0 continuous, 400 integer (390 binary)

Root relaxation: objective 3.100000e+01, 249 iterations, 0.03 seconds (0.02 work units)

    Nodes    |    Current Node    |     Objective Bounds      |     Work
 Expl Unexpl |  Obj  Depth IntInf | Incumbent    BestBd   Gap | It/Node Time

     0     0   31.00000    0   20    7.00000   31.00000   343%     -    0s
H    0     0                      20.0000000   31.00000  55.0%     -    0s
     0     0   31.00000    0   19   20.00000   31.00000  55.0%     -    0s
     0     0   31.00000    0   20   20.00000   31.00000  55.0%     -    0s
     0     0   31.00000    0   16   20.00000   31.00000  55.0%     -    0s
     0     0   31.00000    0   15   20.00000   31.00000  55.0%     -    0s
     0     0   31.00000    0   22   20.00000   31.00000  55.0%     -    0s
     0     0   31.00000    0   15   20.00000   31.00000  55.0%     -    0s
     0     0   30.00000    0   17   20.00000   30.00000  50.0%     -    0s
     0     0   30.00000    0   15   20.00000   30.00000  50.0%     -    0s
     0     0   30.00000    0   18   20.00000   30.00000  50.0%     -    0s
     0     0   30.00000    0   15   20.00000   30.00000  50.0%     -    0s
     0     0   30.00000    0   14   20.00000   30.00000  50.0%     -    0s
     0     0   30.00000    0   23   20.00000   30.00000  50.0%     -    0s
     0     0   30.00000    0   15   20.00000   30.00000  50.0%     -    0s
     0     0   30.00000    0   14   20.00000   30.00000  50.0%     -    0s
     0     0   30.00000    0   18   20.00000   30.00000  50.0%     -    0s
     0     0   30.00000    0   18   20.00000   30.00000  50.0%     -    0s
     0     0   30.00000    0   18   20.00000   30.00000  50.0%     -    0s
     0     0   30.00000    0   18   20.00000   30.00000  50.0%     -    0s
     0     2   30.00000    0   15   20.00000   30.00000  50.0%     -    0s

Cutting planes:
  Cover: 5
  MIR: 7
  Inf proof: 14
  Zero half: 9

Explored 459 nodes (41399 simplex iterations) in 1.23 seconds (1.09 work units)
Thread count was 16 (of 16 available processors)

Solution count 2: 20 7 

Optimal solution found (tolerance 1.00e-04)
Best objective 2.000000000000e+01, best bound 2.000000000000e+01, gap 0.0000%

Wrote result file '/root/bgw/data/results/2026_03_23_16_04_28_set_exp_3_exp_3_n028_c003_g002_max.sol'

